NAME: xqf131
COMMENT: Quick (5min) local search tour for xqf131 (646.4479722899991)
TYPE: TOUR
DIMENSION: 131
TOUR_SECTION: 1 12 5 13 18 25 17 16 19 27 26 28 29 30 52 51 50 49 48 47 55 54 46 45 53 74 64 68 75 78 77 81 82 87 88 92 94 99 131 129 122 128 127 126 125 124 121 118 114 123 130 112 98 89 93 102 101 100 105 106 107 113 108 109 115 119 116 120 117 110 111 103 104 97 96 95 90 91 61 73 72 80 86 85 84 83 79 76 63 67 71 70 66 62 65 69 56 57 58 59 60 44 43 24 42 41 40 39 38 37 36 35 22 23 11 4 10 9 3 2 8 7 21 34 33 32 31 20 15 14 6 -1
EOF